interface ihello
{
  in void hello ();
  behavior {}
}

component hello
{
  requires injected ihello r;
}

component logger
{
  requires ihello r;
}

component binding_wildcard_requires
{
  system
  {
    hello h;
    logger log;

    log.r <=> *;
  }
}
